NAME: test1362
TYPE: TSP
DIMENSION: 11
EDGE_WEIGHT_TYPE: EUC_2D
NODE_COORD_SECTION
1 80.71834789012796 59.71265021646693
2 73.42302289976213 41.20492585771467
3 33.991535410018834 61.264615870718565
4 44.74641067706677 93.59996837493266
5 79.88269279559162 75.37986646978435
6 2.9393817157892133 44.343726503361246
7 21.52803821600562 31.510704039090022
8 29.656582587819724 46.92272958386929
9 96.14516255484149 29.848863817841632
10 33.33801741144862 64.15433481064805
11 74.62500318252523 82.51061219834178
EOF
